# [File generated by ScopLib 0.2.0 MP bits]

SCoP

# =============================================== Global
# Language
C

# Context
0 2

# Parameter names are not provided
0

# Number of statements
2

# =============================================== Statement 1
# ----------------------------------------------  1.1 Domain
# Iteration domain
1
4 4
   1    1    0    0    ## i_0 >= 0
   1   -1    0 9999    ## -i_0+9999 >= 0
   1    0    1    0    ## i_1 >= 0
   1    0   -1 999998    ## -i_1+999998 >= 0

# ----------------------------------------------  1.2 Scattering
# Scattering function is provided
1
# Scattering function
5 4
   0    0    0    0    ## 0
   0    1    0    0    ## i_0
   0    0    0    0    ## 0
   0    0    1    0    ## i_1
   0    0    0    0    ## 0

# ----------------------------------------------  1.3 Access
# Access informations are provided
1
# Read access informations
3 4
   1    0    1    1    ## e[i_1+1]
   2    0    1    1    ## h[i_1+1]
   2    0    1    0    ## h[i_1]
# Write access informations
1 4
   1    0    1    1    ## e[i_1+1]

# ----------------------------------------------  1.4 Body
# Statement body is provided
1
# Original iterator names
i_0 i_1 
# Statement body
%1


# =============================================== Statement 2
# ----------------------------------------------  2.1 Domain
# Iteration domain
1
4 4
   1    1    0    0    ## i_0 >= 0
   1   -1    0 9999    ## -i_0+9999 >= 0
   1    0    1    0    ## i_1 >= 0
   1    0   -1 999999    ## -i_1+999999 >= 0

# ----------------------------------------------  2.2 Scattering
# Scattering function is provided
1
# Scattering function
5 4
   0    0    0    0    ## 0
   0    1    0    0    ## i_0
   0    0    0    1    ## 1
   0    0    1    0    ## i_1
   0    0    0    0    ## 0

# ----------------------------------------------  2.3 Access
# Access informations are provided
1
# Read access informations
3 4
   2    0    1    0    ## h[i_1]
   1    0    1    1    ## e[i_1+1]
   1    0    1    0    ## e[i_1]
# Write access informations
1 4
   2    0    1    0    ## h[i_1]

# ----------------------------------------------  2.4 Body
# Statement body is provided
1
# Original iterator names
i_0 i_1 
# Statement body
%8


# =============================================== Options
