# Optimal code is in fact :
#
# for (i=0;i<=M;i+=2) {
#   S1 ;
# }
 
# language: C
c

# parameter n
1 3
#  n  1
1  0  1
1
n

1 # Number of statements

1
# {i | 0<=i<=n}
4 5
#  i  j  n  1
1  1  0  0  0
1 -1  0  1  0
1  0  1  0  0
1  0 -1  1  0
0  0  0
0

1 # Scattering functions

2 7
# c1 c2  i  j  n  1
0  1  0 -2 -3  0  0 
0  0  1 -2 -2  0  0 

0
